46
3 39 58 42 
3 57 26 106 
3 3 114 52 
2 29 69 
3 62 117 44 
3 56 67 89 
2 1 15 
3 65 64 70 
3 29 91 34 
3 93 62 30 
3 80 39 42 
3 68 27 21 
3 51 109 95 
3 68 85 114 
3 17 20 66 
3 80 12 9 
2 71 31 
2 79 111 
2 28 7 
3 72 75 108 
3 102 52 98 
3 19 119 88 
2 25 28 
3 37 49 90 
2 110 105 
2 43 67 
3 13 94 100 
3 59 43 99 
2 90 18 
3 81 83 23 
2 73 69 
3 11 97 46 
3 82 120 86 
3 59 99 2 
3 44 40 92 
2 60 3 
2 21 14 
3 64 98 70 
2 95 32 
2 37 106 
3 34 63 91 
2 50 45 
2 109 118 
3 77 27 4 
1 97 
3 19 107 113 
